
Gurobi 10.0.1 (win64) logging started Thu Mar 16 21:59:21 2023

Set parameter LogFile to value "Outputs/model1.log"

Gurobi 10.0.1 (win64) logging started Thu Mar 16 22:21:56 2023

Set parameter LogFile to value "Outputs/model1.log"

Gurobi 10.0.1 (win64) logging started Thu Mar 16 22:22:54 2023

Set parameter LogFile to value "Outputs/model1.log"

Gurobi 10.0.1 (win64) logging started Thu Mar 16 22:48:05 2023

Set parameter LogFile to value "Outputs/model1.log"

Gurobi 10.0.1 (win64) logging started Thu Mar 16 23:18:33 2023

Set parameter LogFile to value "Outputs/model1.log"

Gurobi 10.0.1 (win64) logging started Thu Mar 16 23:19:00 2023

Set parameter LogFile to value "Outputs/model1.log"

Gurobi 10.0.1 (win64) logging started Thu Mar 16 23:35:06 2023

Set parameter LogFile to value "Outputs/model1.log"

Gurobi 10.0.1 (win64) logging started Thu Mar 16 23:37:28 2023

Set parameter LogFile to value "Outputs/model1.log"

Gurobi 10.0.1 (win64) logging started Thu Mar 16 23:53:10 2023

Set parameter LogFile to value "Outputs/model1.log"

Gurobi 10.0.1 (win64) logging started Fri Mar 17 00:07:13 2023

Set parameter LogFile to value "Outputs/model1.log"

Gurobi 10.0.1 (win64) logging started Fri Mar 17 00:21:42 2023

Set parameter LogFile to value "Outputs/model1.log"

Gurobi 10.0.1 (win64) logging started Fri Mar 17 00:30:28 2023

Set parameter LogFile to value "Outputs/model1.log"

Gurobi 10.0.1 (win64) logging started Fri Mar 17 00:32:04 2023

Set parameter LogFile to value "Outputs/model1.log"

Gurobi 10.0.1 (win64) logging started Fri Mar 17 00:42:44 2023

Set parameter LogFile to value "Outputs/model1.log"

Gurobi 10.0.1 (win64) logging started Fri Mar 17 00:55:29 2023

Set parameter LogFile to value "Outputs/model1.log"

Gurobi 10.0.1 (win64) logging started Fri Mar 17 01:04:30 2023

Set parameter LogFile to value "Outputs/model1.log"

Gurobi 10.0.1 (win64) logging started Fri Mar 17 01:10:34 2023

Set parameter LogFile to value "Outputs/model1.log"

Gurobi 10.0.1 (win64) logging started Fri Mar 17 01:14:35 2023

Set parameter LogFile to value "Outputs/model1.log"

Gurobi 10.0.1 (win64) logging started Fri Mar 17 01:36:37 2023

Set parameter LogFile to value "Outputs/model1.log"

Gurobi 10.0.1 (win64) logging started Fri Mar 17 02:02:37 2023

Set parameter LogFile to value "Outputs/model1.log"

Gurobi 10.0.1 (win64) logging started Fri Mar 17 02:23:58 2023

Set parameter LogFile to value "Outputs/model1.log"

Gurobi 10.0.1 (win64) logging started Fri Mar 17 02:27:05 2023

Set parameter LogFile to value "Outputs/model1.log"

Gurobi 10.0.1 (win64) logging started Fri Mar 17 02:32:38 2023

Set parameter LogFile to value "Outputs/model1.log"

Gurobi 10.0.1 (win64) logging started Fri Mar 17 02:35:01 2023

Set parameter LogFile to value "Outputs/model1.log"
